638
0 61 109 352 436 
0 23 91 157 198 
21 61 198 223 302 
0 37 106 240 302 
295 380 469 530 598 
214 301 380 500 598 
0 191 461 552 572 
37 61 191 223 294 
101 294 366 436 530 
61 157 275 294 359